NAME : covtype.pruned_local_4.-3268041.tour
COMMENT : Length = -3268041
TYPE : TOUR
DIMENSION : 54
TOUR_SECTION
53
2
8
3
7
9
4
10
6
5
21
1
22
19
17
16
18
20
14
15
12
39
38
37
36
35
34
33
32
31
30
29
28
26
24
23
25
27
13
40
41
42
43
11
44
45
46
47
48
49
50
51
52
54
-1
EOF
